(set-logic ALL)
(set-option :produce-models true)
(declare-sort BoundSet 0)
(declare-sort UnboundSet 0)
(set-option :finite-model-find true)
(declare-fun WearingKilt (BoundSet) Bool)
(declare-fun ThrownLargePole (BoundSet) Bool)
(declare-fun WearingSkirt (BoundSet) Bool)
(assert (not (=> (exists ((a BoundSet)) (and (WearingKilt a) (ThrownLargePole a))) (exists ((c BoundSet)) (WearingSkirt c)))))
(check-sat)
(get-model)